(set-logic HORN)
(declare-fun state (Int (Array Int Int) (Array Int Int) (Array Int Int) (Array Int Int) Int Int (Array Int Int) (Array Int Int) Int Int Int Int Int Int Int Int Int Int Int Int Int Int Int Bool Bool Bool Bool Bool (Array Int Int)) Bool)
(assert (forall ((|A_13| Int) (|B_13| (Array Int Int)) (|C_13| (Array Int Int)) (|D_13| (Array Int Int)) (|E_13| (Array Int Int)) (|F_13| Int) (|G_13| Int) (|H_13| (Array Int Int)) (|I_13| (Array Int Int)) (|J_13| Int) (|K_13| Int) (|L_13| Int) (|M_13| Int) (|N_13| Int) (|O_13| Int) (|P_13| Int) (|Q_13| Int) (|R_13| Int) (|S_13| Int) (|T_13| Int) (|U_13| Int) (|V_13| Int) (|W_13| Int) (|X_13| Int) (|Z_7| Bool) (|.loc.5| Bool) (|.loc.6| Bool) (|.loc.7| Bool) (|.loc.8| Bool) (|Z_0| (Array Int Int)) (|.x.332| Int) (|.x.330| (Array Int Int)) (|.x.328| Int) (|.x.326| (Array Int Int)) (|.x.322| Int) (|.x.324| (Array Int Int)) (|.x.323| (Array Int Int)) (|Y_13| Bool) (|.x.333| Int) (|.x.339| Int) (|.x.340| Int) (|.x.343| Int) (|.loc.12| Bool) (|.loc.10| Bool) (|.loc.11| Bool) (|.x.342| Int) (|.x.334| Int) (|.x.344| Int) (|.x.345| Int) (|.loc.9| Bool) (|.x.338| Int) (|.x.335| Int) (|.x.336| Int) (|.x.325| (Array Int Int)) (|.x.337| Int) (|.x.341| Int) (|.x.331| Int) (|.x.327| Int) (|.x.329| (Array Int Int)) (|.xtv.1| (Array Int Int))) (=> (and (and (and (and .loc.5 (not .loc.6)) (not .loc.7)) (not .loc.8)) (and (and (and (and (and (= D_13 E_13) (not Z_7)) (= J_13 K_13)) (= F_13 G_13)) (= H_13 I_13)) (= B_13 C_13))) (state |A_13| |B_13| |C_13| |D_13| |E_13| |F_13| |G_13| |H_13| |I_13| |J_13| |K_13| |L_13| |M_13| |N_13| |O_13| |P_13| |Q_13| |R_13| |S_13| |T_13| |U_13| |V_13| |W_13| |X_13| |Z_7| |.loc.5| |.loc.6| |.loc.7| |.loc.8| |Z_0|))))
(assert (forall ((|A_13| Int) (|B_13| (Array Int Int)) (|C_13| (Array Int Int)) (|D_13| (Array Int Int)) (|E_13| (Array Int Int)) (|F_13| Int) (|G_13| Int) (|H_13| (Array Int Int)) (|I_13| (Array Int Int)) (|J_13| Int) (|K_13| Int) (|L_13| Int) (|M_13| Int) (|N_13| Int) (|O_13| Int) (|P_13| Int) (|Q_13| Int) (|R_13| Int) (|S_13| Int) (|T_13| Int) (|U_13| Int) (|V_13| Int) (|W_13| Int) (|X_13| Int) (|Z_7| Bool) (|.loc.5| Bool) (|.loc.6| Bool) (|.loc.7| Bool) (|.loc.8| Bool) (|Z_0| (Array Int Int)) (|.x.332| Int) (|.x.330| (Array Int Int)) (|.x.328| Int) (|.x.326| (Array Int Int)) (|.x.322| Int) (|.x.324| (Array Int Int)) (|.x.323| (Array Int Int)) (|Y_13| Bool) (|.x.333| Int) (|.x.339| Int) (|.x.340| Int) (|.x.343| Int) (|.loc.12| Bool) (|.loc.10| Bool) (|.loc.11| Bool) (|.x.342| Int) (|.x.334| Int) (|.x.344| Int) (|.x.345| Int) (|.loc.9| Bool) (|.x.338| Int) (|.x.335| Int) (|.x.336| Int) (|.x.325| (Array Int Int)) (|.x.337| Int) (|.x.341| Int) (|.x.331| Int) (|.x.327| Int) (|.x.329| (Array Int Int)) (|.xtv.1| (Array Int Int))) (=> (and (state |A_13| |B_13| |C_13| |D_13| |E_13| |F_13| |G_13| |H_13| |I_13| |J_13| |K_13| |L_13| |M_13| |N_13| |O_13| |P_13| |Q_13| |R_13| |S_13| |T_13| |U_13| |V_13| |W_13| |X_13| |Z_7| |.loc.5| |.loc.6| |.loc.7| |.loc.8| |Z_0|) (let ((.def_40 (not .loc.6))) (let ((.def_42 (not .loc.7))) (let ((.def_77 (= B_13 .x.323))) (let ((.def_81 (= L_13 .x.333))) (let ((.def_84 (= R_13 .x.339))) (let ((.def_87 (= S_13 .x.340))) (let ((.def_90 (= V_13 .x.343))) (let ((.def_92 (not .loc.5))) (let ((.def_103 (= Z_7 Y_13))) (let ((.def_110 (not .loc.10))) (let ((.def_113 (not .loc.11))) (let ((.def_116 (= M_13 0))) (let ((.def_118 (and .def_77 .def_81))) (let ((.def_121 (and .def_90 (and .def_87 (and .def_84 .def_118))))) (let ((.def_126 (not .loc.12))) (let ((.def_132 (= U_13 .x.342))) (let ((.def_134 (= M_13 .x.334))) (let ((.def_137 (= W_13 .x.344))) (let ((.def_140 (= X_13 .x.345))) (let ((.def_143 (not .loc.9))) (let ((.def_157 (select D_13 L_13))) (let ((.def_168 (<= 50000 Q_13))) (let ((.def_185 (= Q_13 .x.338))) (let ((.def_187 (= N_13 .x.335))) (let ((.def_196 (and .def_118 .def_134))) (let ((.def_213 (and .def_187 .def_196))) (let ((.def_230 (and Z_7 .def_77))) (let ((.def_240 (and .def_140 (and .def_137 (and .def_90 (and .def_132 (and .def_87 (and .def_84 (and .def_185 (and .def_187 (and .def_134 (and .def_81 .def_230)))))))))))) (let ((.def_257 (and .def_140 (and .def_137 (and .def_90 (and .def_132 (and .def_87 (and .def_84 (and .def_185 .def_213))))))))) (let ((.def_277 (<= 50000 O_13))) (let ((.def_280 (and .def_92 (and .loc.6 .def_257)))) (let ((.def_290 (= O_13 .x.336))) (let ((.def_292 (= D_13 .x.325))) (let ((.def_295 (= P_13 .x.337))) (let ((.def_298 (= T_13 .x.341))) (and (and (not .loc.8) (and (= K_13 .x.332) (and (= I_13 .x.330) (and (= G_13 .x.328) (and (= E_13 .x.326) (and (= A_13 .x.322) (= C_13 .x.324))))))) (or (and (or (or (or (and (or (or (or (or (or (or (and (or (and (or (and (or (and (and (and (and (and (and .def_77 Y_13) .def_81) .def_84) .def_87) .def_90) .def_92) (and (or Z_7 (and (= .x.340 0) (= .x.323 (store B_13 L_13 0)))) (and (and .loc.5 (or Y_13 (= .x.339 .x.340))) .def_103))) (and (and (and .loc.6 .loc.12) .def_110) .def_113)) (and (or Z_7 .def_116) (and .def_40 (and (and .def_103 (and .loc.11 (and .loc.10 (and .loc.5 .def_121)))) .def_126)))) (and (and (and (and .def_132 .def_134) .def_137) .def_140) .def_143)) (and (or Z_7 (and (= .x.342 .x.334) (and (= .x.342 (ite (= .x.344 .x.345) 1 0)) (and (= .x.344 (select .def_157 (+ (+ (* (- 4) Q_13) V_13) 399996))) (and (= .x.345 (select .def_157 (+ (* 4 Q_13) V_13))) (not .def_168)))))) (and .def_40 (and .def_126 (and .def_103 (and .def_110 (and .loc.11 (and .loc.9 (and .def_92 .def_121))))))))) (and .loc.7 (and .def_185 .def_187))) (and (or Y_13 (= (+ Q_13 (* (- 1) .x.338)) (- 1))) (and .def_42 (and .def_40 (and .def_126 (and .def_103 (and .def_110 (and .def_143 (and .loc.11 (and .def_92 (and .def_90 (and .def_132 (and .def_87 (and .def_84 .def_196)))))))))))))) (and (or Z_7 (= .x.338 0)) (and .def_42 (and .def_126 (and .def_103 (and .def_110 (and .def_143 (and .loc.11 (and .loc.6 (and .loc.5 (and .def_140 (and .def_137 (and .def_90 (and .def_132 (and .def_87 (and .def_84 .def_213)))))))))))))))) (and .def_40 (and .def_126 (and .def_103 (and .loc.11 (and .loc.10 (and .loc.9 (and .def_92 (and .loc.7 .def_240))))))))) (and (or Z_7 .def_168) (and .def_40 (and .def_126 (and .def_103 (and .loc.11 (and .loc.10 (and .loc.9 (and .def_92 (and .loc.7 .def_257)))))))))) (and .def_42 (and .def_126 (and .def_103 (and .def_113 (and .loc.10 (and .loc.9 (and .def_92 (and .loc.6 .def_240))))))))) (and (or Z_7 .def_277) (and .def_42 (and .def_126 (and .def_103 (and .def_113 (and .loc.10 (and .loc.9 .def_280)))))))) (and (and (and .def_290 .def_292) .def_295) .def_298)) (and (or Z_7 (and (= .x.325 (store D_13 L_13 (store .def_157 (+ (* 4 O_13) V_13) (select .def_157 (+ (+ (* (- 4) O_13) V_13) 399996))))) (not .def_277))) (and (or Y_13 (= (+ O_13 (* (- 1) .x.336)) (- 1))) (and .def_42 (and .def_126 (and .def_103 (and .def_113 (and .def_143 (and .loc.10 .def_280))))))))) (and (or Z_7 (not .def_116)) (and .def_40 (and .def_126 (and .def_103 (and .def_113 (and .def_110 (and .def_143 (and .loc.7 (and .loc.5 (and .def_140 (and .def_137 (and .def_90 (and .def_132 (and .def_298 (and .def_87 (and .def_84 (and .def_185 (and .def_295 (and .def_290 (and .def_187 (and .def_134 (and .def_81 (and .def_77 .def_292)))))))))))))))))))))))) (and .def_126 (and .def_103 (and .def_113 (and .def_110 (and .def_143 (and .def_92 (and .loc.7 (and .loc.6 (and .def_140 (and .def_137 (and .def_90 (and .def_132 (and .def_298 (and .def_87 (and .def_84 (and .def_185 (and .def_295 (and .def_290 (and .def_187 (and .def_134 (and .def_81 (and .def_230 .def_292))))))))))))))))))))))) (and (= J_13 .x.331) (and (= F_13 .x.327) (= H_13 .x.329)))) (and (or Z_7 (and (and (= .x.331 0) (= .x.327 0)) (= Z_0 (store B_13 0 0)))) (and (or Y_13 (and (and (and (and (and (and (not (<= .x.322 .x.333)) (= .x.336 0)) (= .x.343 0)) (not (= .x.333 0))) (= (select Z_0 .x.333) 0)) (= .x.329 (store H_13 .x.333 400000))) (= .x.323 (store Z_0 .x.333 1)))) (and .def_42 (and .def_40 (and .def_126 (and .def_103 (and .def_113 (and .def_143 (and .loc.10 (and .loc.5 (and .def_132 (and .def_84 (and .def_134 .def_292))))))))))))))))))))))))))))))))))))))))))))))))))) (state |.x.322| |.x.323| |.x.324| |.x.325| |.x.326| |.x.327| |.x.328| |.x.329| |.x.330| |.x.331| |.x.332| |.x.333| |.x.334| |.x.335| |.x.336| |.x.337| |.x.338| |.x.339| |.x.340| |.x.341| |.x.342| |.x.343| |.x.344| |.x.345| |Y_13| |.loc.9| |.loc.10| |.loc.11| |.loc.12| |.xtv.1|))))
(assert (forall ((|A_13| Int) (|B_13| (Array Int Int)) (|C_13| (Array Int Int)) (|D_13| (Array Int Int)) (|E_13| (Array Int Int)) (|F_13| Int) (|G_13| Int) (|H_13| (Array Int Int)) (|I_13| (Array Int Int)) (|J_13| Int) (|K_13| Int) (|L_13| Int) (|M_13| Int) (|N_13| Int) (|O_13| Int) (|P_13| Int) (|Q_13| Int) (|R_13| Int) (|S_13| Int) (|T_13| Int) (|U_13| Int) (|V_13| Int) (|W_13| Int) (|X_13| Int) (|Z_7| Bool) (|.loc.5| Bool) (|.loc.6| Bool) (|.loc.7| Bool) (|.loc.8| Bool) (|Z_0| (Array Int Int)) (|.x.332| Int) (|.x.330| (Array Int Int)) (|.x.328| Int) (|.x.326| (Array Int Int)) (|.x.322| Int) (|.x.324| (Array Int Int)) (|.x.323| (Array Int Int)) (|Y_13| Bool) (|.x.333| Int) (|.x.339| Int) (|.x.340| Int) (|.x.343| Int) (|.loc.12| Bool) (|.loc.10| Bool) (|.loc.11| Bool) (|.x.342| Int) (|.x.334| Int) (|.x.344| Int) (|.x.345| Int) (|.loc.9| Bool) (|.x.338| Int) (|.x.335| Int) (|.x.336| Int) (|.x.325| (Array Int Int)) (|.x.337| Int) (|.x.341| Int) (|.x.331| Int) (|.x.327| Int) (|.x.329| (Array Int Int)) (|.xtv.1| (Array Int Int))) (=> (state |A_13| |B_13| |C_13| |D_13| |E_13| |F_13| |G_13| |H_13| |I_13| |J_13| |K_13| |L_13| |M_13| |N_13| |O_13| |P_13| |Q_13| |R_13| |S_13| |T_13| |U_13| |V_13| |W_13| |X_13| |Z_7| |.loc.5| |.loc.6| |.loc.7| |.loc.8| |Z_0|) (not (and Z_7 (and .loc.8 (and (not .loc.7) (and (not .loc.6) (not .loc.5)))))))))
(check-sat)
